6,6	0,0	6,9	18,3	0,0	0,0	0,0	0,0	0,0	19,8
12,2	16,3	0,0	19,6	10,5	0,0	0,0	6,1	0,0	0,0
0,0	0,0	14,5	0,0	9,9	18,2	0,0	0,0	7,3	0,0
13,8	0,0	9,4	0,0	0,0	0,0	8,1	0,0	0,0	0,0
0,0	9,4	0,0	17,5	11,4	0,0	0,0	12,8	0,0	0,0
0,0	14,9	11,7	0,0	11,8	13,5	0,0	0,0	11,4	0,0
0,0	15,9	0,0	13,5	0,0	0,0	10,6	0,0	0,0	15,4
10,2	0,0	6,6	0,0	0,0	0,0	0,0	0,0	0,0	15,4
0,0	9,1	0,0	8,5	19,5	0,0	0,0	8,3	0,0	0,0
0,0	0,0	13,4	0,0	0,0	5,9	7,4	0,0	0,0	9,0
									
4,2	2,8	3,4	4,5	3,8	2,7	4,6	3,2	3,3	4,7
